sat
(:max-memory         18.01
 :memory             17.92
 :nlsat-propagations 7
 :nlsat-stages       4
 :num-allocs         5146
 :rlimit-count       767
 :time               0.00
 :total-time         0.02)
